
Gurobi 7.0.2 (linux64, Python) logging started Fri Apr 21 19:26:40 2017


Gurobi 7.0.2 (linux64, Python) logging started Fri Apr 21 19:36:14 2017


Gurobi 7.0.2 (linux64, Python) logging started Fri Apr 21 19:37:03 2017


Gurobi 7.0.2 (linux64, Python) logging started Fri Apr 21 20:00:02 2017


Gurobi 7.0.2 (linux64, Python) logging started Fri Apr 21 20:45:25 2017


Gurobi 7.0.2 (linux64, Python) logging started Tue May  2 11:56:49 2017


Gurobi 7.0.2 (linux64, Python) logging started Fri May 19 12:43:14 2017


Gurobi 7.0.2 (linux64, Python) logging started Fri May 19 13:49:33 2017


Gurobi 7.0.2 (linux64, Python) logging started Fri May 19 13:53:27 2017


Gurobi 7.0.2 (linux64, Python) logging started Fri May 19 13:54:19 2017


Gurobi 7.0.2 (linux64, Python) logging started Fri May 19 13:54:31 2017


Gurobi 7.0.2 (linux64, Python) logging started Fri Jun  8 13:10:31 2018


Gurobi 7.0.2 (linux64, Python) logging started Fri Jun  8 13:13:51 2018


Gurobi 7.0.2 (linux64, Python) logging started Fri Jun  8 13:14:02 2018


Gurobi 7.0.2 (linux64, Python) logging started Fri Jun  8 13:14:54 2018


Gurobi 7.0.2 (linux64, Python) logging started Fri Jun  8 14:06:36 2018


Gurobi 7.0.2 (linux64, Python) logging started Fri Jun  8 14:16:55 2018


Gurobi 7.0.2 (linux64, Python) logging started Fri Jun  8 14:17:11 2018


Gurobi 7.0.2 (linux64, Python) logging started Fri Jun  8 14:20:32 2018


Gurobi 7.0.2 (linux64, Python) logging started Fri Jun  8 14:21:08 2018


Gurobi 7.0.2 (linux64, Python) logging started Fri Jun  8 14:21:19 2018


Gurobi 7.0.2 (linux64, Python) logging started Fri Jun  8 14:22:09 2018


Gurobi 7.0.2 (linux64, Python) logging started Fri Jun  8 14:23:03 2018


Gurobi 7.0.2 (linux64, Python) logging started Fri Jun  8 14:26:41 2018

